30
5
5
1
40 113
40 55
104 50
106 104
40 113
40 55
104 50
106 104
88 119
78 108
75 104
71 97
66 82
91 66
95 76
77 74
66 48
44 63
46 109
53 91
67 111
61 138
25 85
39 88
34 107
31 121
75 123
101 128
107 114
112 106
121 90
123 72
131 63
126 31
96 22
63 21
39 28
63 40
EOF